143
100
39
48
44
10
54
26
28
22
45
32
68
31
6
8
48
53
26
5
27
27
40
36
41
45
21
4
56
73
44
21
26
8
3
17
46
30
16
5
65
16
72
48
37
29
39
14
41
25
3
3
18
1
10
42
6
42
37
55
52
44
12
4
38
50
27
46
25
13
61
72
21
18
5
30
23
44
10
24
10
48
26
8
19
67
70
25
31
42
21
21
42
73
25
55
10
29
13
58
69
6
4
5
32
4
35
30
50
34
55
65
42
52
66
24
27
39
10
45
8
17
27
3
58
27
32
26
35
73
30
8
24
1
40
51
1
60
21
9
31
50
13
32
35
